
Gurobi 9.5.1 (linux64) logging started Sat Jul  2 16:22:16 2022

Set parameter LogFile to value "../results/logs/log_soc-twitter-higgs.e_17_250_2022_07_02_15_52.log"
Gurobi Optimizer version 9.5.1 build v9.5.1rc2 (linux64)
Thread count: 8 physical cores, 8 logical processors, using up to 8 threads
Optimize a model with 18469 rows, 913262 columns and 596114 nonzeros
Model fingerprint: 0x2e09f40c
Coefficient statistics:
  Matrix range     [1e+00, 2e+01]
  Objective range  [1e+00, 1e+00]
  Bounds range     [1e+00, 1e+00]
  RHS range        [1e+00, 2e+02]

Concurrent LP optimizer: primal simplex, dual simplex, and barrier
Showing barrier log only...

Presolve removed 7749 rows and 893782 columns
Presolve time: 0.51s
Presolved: 10720 rows, 19480 columns, 62389 nonzeros

Ordering time: 0.00s

Barrier statistics:
 AA' NZ     : 3.644e+04
 Factor NZ  : 1.110e+05 (roughly 10 MB of memory)
 Factor Ops : 3.697e+06 (less than 1 second per iteration)
 Threads    : 6

                  Objective                Residual
Iter       Primal          Dual         Primal    Dual     Compl     Time
   0   2.48036821e+05  2.82798560e+05  7.40e+03 4.19e+00  7.83e+01     1s
   1   2.44388413e+05  3.19336231e+05  4.29e+03 1.10e+00  4.28e+01     1s
   2   2.37608276e+05  3.07943199e+05  3.39e+02 1.17e-01  4.73e+00     1s
   3   2.36953801e+05  2.66786049e+05  3.88e+01 4.60e-03  1.01e+00     1s
   4   2.37589617e+05  2.42398957e+05  2.88e+00 7.21e-05  1.32e-01     1s
   5   2.39436340e+05  2.40692576e+05  5.19e-01 1.08e-14  3.26e-02     1s
   6   2.39548311e+05  2.40374178e+05  3.43e-01 8.38e-15  2.12e-02     1s
   7   2.39633476e+05  2.40342988e+05  1.99e-01 9.09e-15  1.81e-02     1s
   8   2.39686358e+05  2.40070909e+05  1.05e-01 4.77e-15  9.75e-03     1s
   9   2.39698171e+05  2.40024745e+05  8.31e-02 2.01e-05  8.27e-03     1s
  10   2.39723320e+05  2.39964878e+05  3.45e-02 2.79e-15  6.09e-03     1s
  11   2.39735344e+05  2.39908442e+05  1.65e-02 3.00e-15  4.35e-03     1s
  12   2.39740232e+05  2.39870949e+05  1.20e-02 1.93e-15  3.29e-03     1s
  13   2.39746665e+05  2.39861106e+05  7.19e-03 1.78e-15  2.88e-03     1s
  14   2.39750009e+05  2.39824023e+05  5.31e-03 1.78e-15  1.86e-03     1s
  15   2.39755495e+05  2.39807922e+05  2.43e-03 1.27e-15  1.32e-03     1s
  16   2.39759157e+05  2.39795621e+05  1.24e-03 8.88e-16  9.15e-04     1s
  17   2.39760781e+05  2.39781670e+05  9.04e-04 1.78e-15  5.24e-04     1s
  18   2.39764489e+05  2.39773392e+05  2.24e-04 1.11e-15  2.23e-04     1s
  19   2.39765079e+05  2.39769566e+05  1.55e-04 8.88e-16  1.13e-04     1s
  20   2.39765944e+05  2.39767832e+05  5.67e-05 6.38e-16  4.73e-05     1s
  21   2.39766223e+05  2.39767083e+05  2.85e-05 1.16e-15  2.16e-05     1s
  22   2.39766450e+05  2.39766754e+05  6.29e-06 9.67e-16  7.63e-06     1s
  23   2.39766513e+05  2.39766557e+05  1.10e-07 1.21e-15  1.11e-06     1s
  24   2.39766518e+05  2.39766523e+05  1.56e-08 8.88e-16  1.30e-07     1s
  25   2.39766519e+05  2.39766519e+05  3.76e-09 1.16e-15  2.02e-08     1s
  26   2.39766519e+05  2.39766519e+05  9.25e-13 1.11e-15  2.03e-10     1s
  27   2.39766519e+05  2.39766519e+05  9.32e-11 2.22e-15  7.89e-15     1s

Barrier solved model in 27 iterations and 0.72 seconds (0.50 work units)
Optimal objective 2.39766519e+05

Crossover log...

     935 DPushes remaining with DInf 0.0000000e+00                 1s
       0 DPushes remaining with DInf 0.0000000e+00                 1s

      27 PPushes remaining with PInf 0.0000000e+00                 1s
       0 PPushes remaining with PInf 0.0000000e+00                 1s

  Push phase complete: Pinf 0.0000000e+00, Dinf 4.0517069e-14      1s

Iteration    Objective       Primal Inf.    Dual Inf.      Time
     415    2.3976652e+05   0.000000e+00   0.000000e+00      1s

Use crossover to convert LP symmetric solution to basic solution...
Crossover log...

       0 DPushes remaining with DInf 0.0000000e+00                 1s

      21 PPushes remaining with PInf 0.0000000e+00                 1s
       0 PPushes remaining with PInf 0.0000000e+00                 1s

  Push phase complete: Pinf 0.0000000e+00, Dinf 2.9657808e-14      1s

Iteration    Objective       Primal Inf.    Dual Inf.      Time
     442    2.3976652e+05   0.000000e+00   0.000000e+00      1s

Solved with primal simplex
Solved in 6959 iterations and 0.90 seconds (0.54 work units)
Optimal objective  2.397665191e+05
